# Solution for model Shortest-Path with Barriers
# Objective value = 6.5482967035989645e+01
xL[0] 9.6530915660612546e+00
xL[1] 1.8662714558648020e+01
muL 1.0000000000000004e+00
zLij[200,1] 1
zLij[201,1] 1
zLij[300,1] 1
zLij[301,1] 1
zLij[400,1] 1
zLij[401,1] 1
zLij[500,1] 0
zLij[501,1] 0
zLij[100,2] 0
zLij[101,2] 0
zLij[300,2] 1
zLij[301,2] 1
zLij[400,2] 0
zLij[401,2] 1
zLij[500,2] 0
zLij[501,2] 0
zLij[100,3] 0
zLij[101,3] 0
zLij[200,3] 0
zLij[201,3] 0
zLij[400,3] 0
zLij[401,3] 0
zLij[500,3] 0
zLij[501,3] 0
zLij[100,4] 0
zLij[101,4] 0
zLij[200,4] 1
zLij[201,4] 1
zLij[300,4] 1
zLij[301,4] 1
zLij[500,4] 0
zLij[501,4] 0
zLij[100,5] 1
zLij[101,5] 1
zLij[200,5] 1
zLij[201,5] 1
zLij[300,5] 1
zLij[301,5] 1
zLij[400,5] 1
zLij[401,5] 1
zLijp[200,1] 1
zLijp[201,1] 1
zLijp[300,1] 1
zLijp[301,1] 1
zLijp[400,1] 1
zLijp[401,1] 1
zLijp[500,1] 0
zLijp[501,1] 0
zLijp[100,2] 0
zLijp[101,2] 0
zLijp[300,2] 1
zLijp[301,2] 1
zLijp[400,2] 0
zLijp[401,2] 0
zLijp[500,2] 0
zLijp[501,2] 0
zLijp[100,3] 0
zLijp[101,3] 0
zLijp[200,3] 0
zLijp[201,3] 0
zLijp[400,3] 0
zLijp[401,3] 0
zLijp[500,3] 0
zLijp[501,3] 0
zLijp[100,4] 0
zLijp[101,4] 0
zLijp[200,4] 0
zLijp[201,4] 1
zLijp[300,4] 1
zLijp[301,4] 1
zLijp[500,4] 0
zLijp[501,4] 0
zLijp[100,5] 1
zLijp[101,5] 1
zLijp[200,5] 1
zLijp[201,5] 1
zLijp[300,5] 1
zLijp[301,5] 1
zLijp[400,5] 1
zLijp[401,5] 1
zLjjp[200,1] 1
zLjjp[201,1] 1
zLjjp[300,1] 1
zLjjp[301,1] 1
zLjjp[400,1] 1
zLjjp[401,1] 1
zLjjp[500,1] 1
zLjjp[501,1] 1
zLjjp[100,2] 0
zLjjp[101,2] 0
zLjjp[300,2] 0
zLjjp[301,2] 0
zLjjp[400,2] 0
zLjjp[401,2] 0
zLjjp[500,2] 0
zLjjp[501,2] 0
zLjjp[100,3] 1
zLjjp[101,3] 1
zLjjp[200,3] 1
zLjjp[201,3] 1
zLjjp[400,3] 1
zLjjp[401,3] 1
zLjjp[500,3] 1
zLjjp[501,3] 1
zLjjp[100,4] 0
zLjjp[101,4] 0
zLjjp[200,4] 0
zLjjp[201,4] 0
zLjjp[300,4] 0
zLjjp[301,4] 0
zLjjp[500,4] 0
zLjjp[501,4] 0
zLjjp[100,5] 1
zLjjp[101,5] 1
zLjjp[200,5] 1
zLjjp[201,5] 1
zLjjp[300,5] 1
zLjjp[301,5] 1
zLjjp[400,5] 1
zLjjp[401,5] 1
zLijjp[200,1] 1
zLijjp[201,1] 1
zLijjp[300,1] 0
zLijjp[301,1] 0
zLijjp[400,1] 0
zLijjp[401,1] 0
zLijjp[500,1] 1
zLijjp[501,1] 1
zLijjp[100,2] 1
zLijjp[101,2] 1
zLijjp[300,2] 1
zLijjp[301,2] 1
zLijjp[400,2] 1
zLijjp[401,2] 1
zLijjp[500,2] 0
zLijjp[501,2] 0
zLijjp[100,3] 1
zLijjp[101,3] 1
zLijjp[200,3] 1
zLijjp[201,3] 1
zLijjp[400,3] 1
zLijjp[401,3] 1
zLijjp[500,3] 1
zLijjp[501,3] 1
zLijjp[100,4] 0
zLijjp[101,4] 0
zLijjp[200,4] 0
zLijjp[201,4] 0
zLijjp[300,4] 0
zLijjp[301,4] 0
zLijjp[500,4] 0
zLijjp[501,4] 0
zLijjp[100,5] 1
zLijjp[101,5] 1
zLijjp[200,5] 1
zLijjp[201,5] 1
zLijjp[300,5] 1
zLijjp[301,5] 1
zLijjp[400,5] 1
zLijjp[401,5] 1
deltaL[200,1,0] 0
deltaL[200,1,1] 0
deltaL[201,1,0] 0
deltaL[201,1,1] 0
deltaL[300,1,0] 0
deltaL[300,1,1] 1
deltaL[301,1,0] 0
deltaL[301,1,1] 1
deltaL[400,1,0] 0
deltaL[400,1,1] 1
deltaL[401,1,0] 0
deltaL[401,1,1] 1
deltaL[500,1,0] 0
deltaL[500,1,1] 0
deltaL[501,1,0] 0
deltaL[501,1,1] 0
deltaL[100,2,0] 0
deltaL[100,2,1] 1
deltaL[101,2,0] 0
deltaL[101,2,1] 1
deltaL[300,2,0] 0
deltaL[300,2,1] 1
deltaL[301,2,0] 0
deltaL[301,2,1] 1
deltaL[400,2,0] 0
deltaL[400,2,1] 1
deltaL[401,2,0] 1
deltaL[401,2,1] 1
deltaL[500,2,0] 0
deltaL[500,2,1] 0
deltaL[501,2,0] 0
deltaL[501,2,1] 0
deltaL[100,3,0] 0
deltaL[100,3,1] 0
deltaL[101,3,0] 0
deltaL[101,3,1] 0
deltaL[200,3,0] 0
deltaL[200,3,1] 0
deltaL[201,3,0] 0
deltaL[201,3,1] 0
deltaL[400,3,0] 0
deltaL[400,3,1] 0
deltaL[401,3,0] 0
deltaL[401,3,1] 0
deltaL[500,3,0] 0
deltaL[500,3,1] 0
deltaL[501,3,0] 0
deltaL[501,3,1] 0
deltaL[100,4,0] 0
deltaL[100,4,1] 0
deltaL[101,4,0] 0
deltaL[101,4,1] 0
deltaL[200,4,0] 1
deltaL[200,4,1] 0
deltaL[201,4,0] 0
deltaL[201,4,1] 0
deltaL[300,4,0] 0
deltaL[300,4,1] 0
deltaL[301,4,0] 0
deltaL[301,4,1] 0
deltaL[500,4,0] 0
deltaL[500,4,1] 0
deltaL[501,4,0] 0
deltaL[501,4,1] 0
deltaL[100,5,0] 0
deltaL[100,5,1] 0
deltaL[101,5,0] 0
deltaL[101,5,1] 0
deltaL[200,5,0] 0
deltaL[200,5,1] 0
deltaL[201,5,0] 0
deltaL[201,5,1] 0
deltaL[300,5,0] 0
deltaL[300,5,1] 0
deltaL[301,5,0] 0
deltaL[301,5,1] 0
deltaL[400,5,0] 0
deltaL[400,5,1] 0
deltaL[401,5,0] 0
deltaL[401,5,1] 0
gammaL[200,1] 0
gammaL[201,1] 0
gammaL[300,1] 0
gammaL[301,1] 0
gammaL[400,1] 0
gammaL[401,1] 0
gammaL[500,1] 0
gammaL[501,1] 0
gammaL[100,2] 0
gammaL[101,2] 0
gammaL[300,2] 0
gammaL[301,2] 0
gammaL[400,2] 0
gammaL[401,2] 1
gammaL[500,2] 0
gammaL[501,2] 0
gammaL[100,3] 0
gammaL[101,3] 0
gammaL[200,3] 0
gammaL[201,3] 0
gammaL[400,3] 0
gammaL[401,3] 0
gammaL[500,3] 0
gammaL[501,3] 0
gammaL[100,4] 0
gammaL[101,4] 0
gammaL[200,4] 0
gammaL[201,4] 0
gammaL[300,4] 0
gammaL[301,4] 0
gammaL[500,4] 0
gammaL[501,4] 0
gammaL[100,5] 0
gammaL[101,5] 0
gammaL[200,5] 0
gammaL[201,5] 0
gammaL[300,5] 0
gammaL[301,5] 0
gammaL[400,5] 0
gammaL[401,5] 0
alphaL[100] 1
alphaL[101] 1
alphaL[200] 1
alphaL[201] 1
alphaL[300] 1
alphaL[301] 1
alphaL[400] 1
alphaL[401] 0
alphaL[500] 1
alphaL[501] 1
dL[100] 2.5329622764194784e+01
dL[101] 2.9120702114671705e+01
dL[200] 1.1340113656912060e+01
dL[201] 10000
dL[300] 6.9236084894484080e+01
dL[301] 7.0043377249526756e+01
dL[400] 3.9900965104487213e+01
dL[401] 10000
dL[500] 2.1880181659446752e+01
dL[501] 1.6224109668754206e+01
difL[100,0] 2.5329536934268667e+01
difL[100,1] 6.5939911541757823e-02
difL[101,0] 2.9035896966014981e+01
difL[101,1] 2.2208059416363044e+00
difL[200,0] 1.0811771837722993e+01
difL[200,1] 3.4210769474981682e+00
difL[201,0] 7.2694530923565353e+00
difL[201,1] 1.0379959734850818e+01
difL[300,0] 3.2383688642687645e+01
difL[300,1] 6.1195850851260076e+01
difL[301,0] 3.4021634736618644e+01
difL[301,1] 6.1225836591814939e+01
difL[400,0] 3.8653891989113909e+01
difL[400,1] 9.8976588324422110e+00
difL[401,0] 40.05428830739
difL[401,1] 2.2783290954643128e+01
difL[500,0] 1.2948108494362330e+01
difL[500,1] 1.7637710618688928e+01
difL[501,0] 1.6245299577458905e+00
difL[501,1] 1.6142572191573123e+01
xR[0] 3.9567622660842474e+01
xR[1] 7.6913378756143459e+01
muR 2.9344366304663438e-01
zRij[200,1] 0
zRij[201,1] 0
zRij[300,1] 1
zRij[301,1] 1
zRij[400,1] 1
zRij[401,1] 1
zRij[500,1] 0
zRij[100,2] 1
zRij[101,2] 1
zRij[300,2] 1
zRij[301,2] 1
zRij[400,2] 1
zRij[401,2] 1
zRij[500,2] 1
zRij[100,3] 0
zRij[101,3] 0
zRij[200,3] 0
zRij[201,3] 0
zRij[400,3] 0
zRij[401,3] 0
zRij[500,3] 0
zRij[100,4] 0
zRij[101,4] 0
zRij[200,4] 0
zRij[201,4] 0
zRij[300,4] 1
zRij[301,4] 1
zRij[500,4] 0
zRij[100,5] 1
zRij[101,5] 1
zRij[200,5] 0
zRij[201,5] 0
zRij[300,5] 1
zRij[301,5] 1
zRij[400,5] 1
zRij[401,5] 1
zRijp[200,1] 0
zRijp[201,1] 0
zRijp[300,1] 1
zRijp[301,1] 1
zRijp[400,1] 1
zRijp[401,1] 1
zRijp[500,1] 0
zRijp[100,2] 1
zRijp[101,2] 1
zRijp[300,2] 1
zRijp[301,2] 1
zRijp[400,2] 1
zRijp[401,2] 1
zRijp[500,2] 1
zRijp[100,3] 0
zRijp[101,3] 0
zRijp[200,3] 0
zRijp[201,3] 0
zRijp[400,3] 0
zRijp[401,3] 0
zRijp[500,3] 0
zRijp[100,4] 0
zRijp[101,4] 0
zRijp[200,4] 0
zRijp[201,4] 0
zRijp[300,4] 1
zRijp[301,4] 1
zRijp[500,4] 0
zRijp[100,5] 1
zRijp[101,5] 1
zRijp[200,5] 1
zRijp[201,5] 0
zRijp[300,5] 1
zRijp[301,5] 1
zRijp[400,5] 1
zRijp[401,5] 1
zRjjp[200,1] 0
zRjjp[201,1] 0
zRjjp[300,1] 0
zRjjp[301,1] 0
zRjjp[400,1] 0
zRjjp[401,1] 0
zRjjp[500,1] 0
zRjjp[100,2] 1
zRjjp[101,2] 1
zRjjp[300,2] 1
zRjjp[301,2] 1
zRjjp[400,2] 1
zRjjp[401,2] 1
zRjjp[500,2] 1
zRjjp[100,3] 1
zRjjp[101,3] 1
zRjjp[200,3] 1
zRjjp[201,3] 1
zRjjp[400,3] 1
zRjjp[401,3] 1
zRjjp[500,3] 1
zRjjp[100,4] 0
zRjjp[101,4] 0
zRjjp[200,4] 0
zRjjp[201,4] 0
zRjjp[300,4] 0
zRjjp[301,4] 0
zRjjp[500,4] 0
zRjjp[100,5] 1
zRjjp[101,5] 1
zRjjp[200,5] 1
zRjjp[201,5] 1
zRjjp[300,5] 1
zRjjp[301,5] 1
zRjjp[400,5] 1
zRjjp[401,5] 1
zRijjp[200,1] 1
zRijjp[201,1] 1
zRijjp[300,1] 0
zRijjp[301,1] 0
zRijjp[400,1] 0
zRijjp[401,1] 0
zRijjp[500,1] 1
zRijjp[100,2] 1
zRijjp[101,2] 1
zRijjp[300,2] 1
zRijjp[301,2] 1
zRijjp[400,2] 1
zRijjp[401,2] 1
zRijjp[500,2] 0
zRijjp[100,3] 1
zRijjp[101,3] 1
zRijjp[200,3] 1
zRijjp[201,3] 1
zRijjp[400,3] 1
zRijjp[401,3] 1
zRijjp[500,3] 1
zRijjp[100,4] 0
zRijjp[101,4] 0
zRijjp[200,4] 0
zRijjp[201,4] 0
zRijjp[300,4] 0
zRijjp[301,4] 0
zRijjp[500,4] 0
zRijjp[100,5] 1
zRijjp[101,5] 1
zRijjp[200,5] 1
zRijjp[201,5] 1
zRijjp[300,5] 1
zRijjp[301,5] 1
zRijjp[400,5] 1
zRijjp[401,5] 1
deltaR[200,1,0] 0
deltaR[200,1,1] 1
deltaR[201,1,0] 0
deltaR[201,1,1] 1
deltaR[300,1,0] 0
deltaR[300,1,1] 0
deltaR[301,1,0] 0
deltaR[301,1,1] 0
deltaR[400,1,0] 0
deltaR[400,1,1] 0
deltaR[401,1,0] 0
deltaR[401,1,1] 0
deltaR[500,1,0] 0
deltaR[500,1,1] 1
deltaR[100,2,0] 0
deltaR[100,2,1] 0
deltaR[101,2,0] 0
deltaR[101,2,1] 0
deltaR[300,2,0] 0
deltaR[300,2,1] 0
deltaR[301,2,0] 0
deltaR[301,2,1] 0
deltaR[400,2,0] 0
deltaR[400,2,1] 0
deltaR[401,2,0] 0
deltaR[401,2,1] 0
deltaR[500,2,0] 0
deltaR[500,2,1] 1
deltaR[100,3,0] 0
deltaR[100,3,1] 0
deltaR[101,3,0] 0
deltaR[101,3,1] 0
deltaR[200,3,0] 0
deltaR[200,3,1] 0
deltaR[201,3,0] 0
deltaR[201,3,1] 0
deltaR[400,3,0] 0
deltaR[400,3,1] 0
deltaR[401,3,0] 0
deltaR[401,3,1] 0
deltaR[500,3,0] 0
deltaR[500,3,1] 0
deltaR[100,4,0] 0
deltaR[100,4,1] 0
deltaR[101,4,0] 0
deltaR[101,4,1] 0
deltaR[200,4,0] 0
deltaR[200,4,1] 0
deltaR[201,4,0] 0
deltaR[201,4,1] 0
deltaR[300,4,0] 0
deltaR[300,4,1] 0
deltaR[301,4,0] 0
deltaR[301,4,1] 0
deltaR[500,4,0] 0
deltaR[500,4,1] 0
deltaR[100,5,0] 0
deltaR[100,5,1] 0
deltaR[101,5,0] 0
deltaR[101,5,1] 0
deltaR[200,5,0] 1
deltaR[200,5,1] 0
deltaR[201,5,0] 0
deltaR[201,5,1] 0
deltaR[300,5,0] 0
deltaR[300,5,1] 0
deltaR[301,5,0] 0
deltaR[301,5,1] 0
deltaR[400,5,0] 0
deltaR[400,5,1] 0
deltaR[401,5,0] 0
deltaR[401,5,1] 0
gammaR[200,1] 0
gammaR[201,1] 0
gammaR[300,1] 0
gammaR[301,1] 0
gammaR[400,1] 0
gammaR[401,1] 0
gammaR[500,1] 0
gammaR[100,2] 0
gammaR[101,2] 0
gammaR[300,2] 0
gammaR[301,2] 0
gammaR[400,2] 0
gammaR[401,2] 0
gammaR[500,2] 0
gammaR[100,3] 0
gammaR[101,3] 0
gammaR[200,3] 0
gammaR[201,3] 0
gammaR[400,3] 0
gammaR[401,3] 0
gammaR[500,3] 0
gammaR[100,4] 0
gammaR[101,4] 0
gammaR[200,4] 0
gammaR[201,4] 0
gammaR[300,4] 0
gammaR[301,4] 0
gammaR[500,4] 0
gammaR[100,5] 0
gammaR[101,5] 0
gammaR[200,5] 0
gammaR[201,5] 0
gammaR[300,5] 0
gammaR[301,5] 0
gammaR[400,5] 0
gammaR[401,5] 0
alphaR[100] 1
alphaR[101] 1
alphaR[200] 1
alphaR[201] 1
alphaR[300] 1
alphaR[301] 1
alphaR[400] 1
alphaR[401] 1
alphaR[500] 1
dR[100] 58.3650944065233
dR[101] 10000
dR[200] 5.8062026941067288e+01
dR[201] 5.2956622110307904e+01
dR[300] 3.8432881002985742e+00
dR[301] 5.0714841122412162e+00
dR[400] 4.9136437674524281e+01
dR[401] 3.6888334191545468e+01
dR[500] 10000
difR[100,0] 4.5849941605125508e+00
difR[100,1] 5.8184724285953678e+01
difR[101,0] 8.7863412876623670e-01
difR[101,1] 6.0471470139131455e+01
difR[200,0] 1.9102759257058224e+01
difR[200,1] 5.4829587249997275e+01
difR[201,0] 2.2645078002424682e+01
difR[201,1] 4.7870704462644625e+01
difR[300,0] 2.4691575479064269e+00
difR[300,1] 2.9451866537646367e+00
difR[301,0] 4.1071036418374263e+00
difR[301,1] 2.9751723943195003e+00
difR[400,0] 8.7393608943326910e+00
difR[400,1] 4.8353005365053228e+01
difR[401,0] 1.0139757212608785e+01
difR[401,1] 3.5467373242852311e+01
difR[500,0] 1.6966422600418888e+01
difR[500,1] 7.5888374816184367e+01
y[100,200] 0
y[200,100] 0
y[100,201] 0
y[201,100] 0
y[100,300] 0
y[300,100] 0
y[100,301] 0
y[301,100] 0
y[100,400] 0
y[400,100] 0
y[100,401] 0
y[401,100] 0
y[100,500] 0
y[500,100] 0
y[100,501] 0
y[501,100] 0
y[101,200] 0
y[200,101] 0
y[101,201] 0
y[201,101] 0
y[101,300] 0
y[300,101] 0
y[101,301] 0
y[301,101] 0
y[101,400] 0
y[400,101] 0
y[101,401] 0
y[401,101] 0
y[101,500] 0
y[500,101] 0
y[101,501] 0
y[501,101] 0
y[200,300] 0
y[300,200] 0
y[200,301] 0
y[301,200] 0
y[200,400] 0
y[400,200] 0
y[200,401] 0
y[401,200] 0
y[200,500] 0
y[500,200] 0
y[200,501] 0
y[501,200] 0
y[201,300] 0
y[300,201] 0
y[201,301] 0
y[301,201] 0
y[201,400] 0
y[400,201] 0
y[201,401] 0
y[401,201] 0
y[201,500] 0
y[500,201] 0
y[201,501] 0
y[501,201] 0
y[300,400] 0
y[400,300] 0
y[300,401] 0
y[401,300] 0
y[300,500] 0
y[500,300] 0
y[301,400] 0
y[400,301] 0
y[301,401] 0
y[401,301] 0
y[301,500] 0
y[500,301] 0
y[400,501] 0
y[501,400] 0
y[401,500] 0
y[500,401] 0
y[401,501] 0
y[501,401] 0
y[0,100] 0
y[100,0] 0
y[0,101] 0
y[101,0] 0
y[0,200] 0
y[200,0] 0
y[0,201] 0
y[201,0] 0
y[0,300] 0
y[300,0] 0
y[0,301] 0
y[301,0] 0
y[0,400] 0
y[400,0] 0
y[0,401] 0
y[401,0] 0
y[0,500] 0
y[500,0] 0
y[0,501] 0
y[501,0] 0
y[100,5] 0
y[5,100] 0
y[101,5] 0
y[5,101] 0
y[200,5] 0
y[5,200] 0
y[201,5] 0
y[5,201] 0
y[300,5] 0
y[5,300] 0
y[301,5] 0
y[5,301] 0
y[400,5] 0
y[5,400] 0
y[401,5] 0
y[5,401] 0
y[500,5] 0
y[5,500] 0
y[0,5] 1
y[5,0] 0
pL[100,200] 0
pL[200,100] 0
pL[100,201] 0
pL[201,100] 0
pL[100,300] 0
pL[300,100] 0
pL[100,301] 0
pL[301,100] 0
pL[100,400] 0
pL[400,100] 0
pL[100,401] 0
pL[401,100] 0
pL[100,500] 0
pL[500,100] 0
pL[100,501] 0
pL[501,100] 0
pL[101,200] 0
pL[200,101] 0
pL[101,201] 0
pL[201,101] 0
pL[101,300] 0
pL[300,101] 0
pL[101,301] 0
pL[301,101] 0
pL[101,400] 0
pL[400,101] 0
pL[101,401] 0
pL[401,101] 0
pL[101,500] 0
pL[500,101] 0
pL[101,501] 0
pL[501,101] 0
pL[200,300] 0
pL[300,200] 0
pL[200,301] 0
pL[301,200] 0
pL[200,400] 0
pL[400,200] 0
pL[200,401] 0
pL[401,200] 0
pL[200,500] 0
pL[500,200] 0
pL[200,501] 0
pL[501,200] 0
pL[201,300] 0
pL[300,201] 0
pL[201,301] 0
pL[301,201] 0
pL[201,400] 0
pL[400,201] 0
pL[201,401] 0
pL[401,201] 0
pL[201,500] 0
pL[500,201] 0
pL[201,501] 0
pL[501,201] 0
pL[300,400] 0
pL[400,300] 0
pL[300,401] 0
pL[401,300] 0
pL[300,500] 0
pL[500,300] 0
pL[301,400] 0
pL[400,301] 0
pL[301,401] 0
pL[401,301] 0
pL[301,500] 0
pL[500,301] 0
pL[400,501] 0
pL[501,400] 0
pL[401,500] 0
pL[500,401] 0
pL[401,501] 0
pL[501,401] 0
pL[0,100] 0
pL[100,0] 0
pL[0,101] 0
pL[101,0] 0
pL[0,200] 0
pL[200,0] 0
pL[0,201] 0
pL[201,0] 0
pL[0,300] 0
pL[300,0] 0
pL[0,301] 0
pL[301,0] 0
pL[0,400] 0
pL[400,0] 0
pL[0,401] 0
pL[401,0] 0
pL[0,500] 0
pL[500,0] 0
pL[0,501] 0
pL[501,0] 0
pL[100,5] 0
pL[5,100] 0
pL[101,5] 0
pL[5,101] 0
pL[200,5] 0
pL[5,200] 0
pL[201,5] 0
pL[5,201] 0
pL[300,5] 0
pL[5,300] 0
pL[301,5] 0
pL[5,301] 0
pL[400,5] 0
pL[5,400] 0
pL[401,5] 0
pL[5,401] 0
pL[500,5] 0
pL[5,500] 0
pL[0,5] 0
pL[5,0] 0
pR[100,200] 0
pR[200,100] 0
pR[100,201] 0
pR[201,100] 0
pR[100,300] 0
pR[300,100] 0
pR[100,301] 0
pR[301,100] 0
pR[100,400] 0
pR[400,100] 0
pR[100,401] 0
pR[401,100] 0
pR[100,500] 0
pR[500,100] 0
pR[100,501] 0
pR[501,100] 0
pR[101,200] 0
pR[200,101] 0
pR[101,201] 0
pR[201,101] 0
pR[101,300] 0
pR[300,101] 0
pR[101,301] 0
pR[301,101] 0
pR[101,400] 0
pR[400,101] 0
pR[101,401] 0
pR[401,101] 0
pR[101,500] 0
pR[500,101] 0
pR[101,501] 0
pR[501,101] 0
pR[200,300] 0
pR[300,200] 0
pR[200,301] 0
pR[301,200] 0
pR[200,400] 0
pR[400,200] 0
pR[200,401] 0
pR[401,200] 0
pR[200,500] 0
pR[500,200] 0
pR[200,501] 0
pR[501,200] 0
pR[201,300] 0
pR[300,201] 0
pR[201,301] 0
pR[301,201] 0
pR[201,400] 0
pR[400,201] 0
pR[201,401] 0
pR[401,201] 0
pR[201,500] 0
pR[500,201] 0
pR[201,501] 0
pR[501,201] 0
pR[300,400] 0
pR[400,300] 0
pR[300,401] 0
pR[401,300] 0
pR[300,500] 0
pR[500,300] 0
pR[301,400] 0
pR[400,301] 0
pR[301,401] 0
pR[401,301] 0
pR[301,500] 0
pR[500,301] 0
pR[400,501] 0
pR[501,400] 0
pR[401,500] 0
pR[500,401] 0
pR[401,501] 0
pR[501,401] 0
pR[0,100] 0
pR[100,0] 0
pR[0,101] 0
pR[101,0] 0
pR[0,200] 0
pR[200,0] 0
pR[0,201] 0
pR[201,0] 0
pR[0,300] 0
pR[300,0] 0
pR[0,301] 0
pR[301,0] 0
pR[0,400] 0
pR[400,0] 0
pR[0,401] 0
pR[401,0] 0
pR[0,500] 0
pR[500,0] 0
pR[0,501] 0
pR[501,0] 0
pR[100,5] 0
pR[5,100] 0
pR[101,5] 0
pR[5,101] 0
pR[200,5] 0
pR[5,200] 0
pR[201,5] 0
pR[5,201] 0
pR[300,5] 0
pR[5,300] 0
pR[301,5] 0
pR[5,301] 0
pR[400,5] 0
pR[5,400] 0
pR[401,5] 0
pR[5,401] 0
pR[500,5] 0
pR[5,500] 0
pR[0,5] 0
pR[5,0] 0
dLR 6.5482967035989645e+01
difLR[0] 2.9914531094781211e+01
difLR[1] 5.8250664197495439e+01
pLR 6.5482967035989645e+01
zLRij[1] 1
zLRij[2] 1
zLRij[3] 1
zLRij[4] 1
zLRij[5] 1
zLRijp[1] 1
zLRijp[2] 1
zLRijp[3] 1
zLRijp[4] 1
zLRijp[5] 1
zLRjjp[1] 1
zLRjjp[2] 0
zLRjjp[3] 1
zLRjjp[4] 0
zLRjjp[5] 1
zLRijjp[1] 0
zLRijjp[2] 1
zLRijjp[3] 1
zLRijjp[4] 0
zLRijjp[5] 1
deltaLR[1,0] 0
deltaLR[1,1] 1
deltaLR[2,0] 0
deltaLR[2,1] 1
deltaLR[3,0] 0
deltaLR[3,1] 0
deltaLR[4,0] 0
deltaLR[4,1] 0
deltaLR[5,0] 0
deltaLR[5,1] 0
gammaLR[1] 0
gammaLR[2] 0
gammaLR[3] 0
gammaLR[4] 0
gammaLR[5] 0
alphaLR 1
